peakDumbCharging = 25900; 
Machine = anon_enum(16); 
machineSpeed = [3700,3700,3700,3700,3700,3700,3700,3700,3700,3700,3700,3700,3700,3700,3700,3700]; 
machineLoad = [3700,3700,3700,3700,3700,3700,3700,3700,3700,3700,3700,3700,3700,3700,3700,3700]; 
Car = anon_enum(38); 
demandCar = [6840,2880,320,13360,8440,11240,11320,20680,4800,7720,13000,9160,3840,7400,10160,9520,6000,1160,10600,9000,5040,7040,17600,1840,9160,17960,7000,920,52160,1600,1680,8680,10320,6960,2560,6440,14760,28280]; 
arrivalCar = [66,65,64,63,63,59,59,56,56,53,52,52,50,50,49,47,47,47,46,45,44,44,42,42,42,41,41,41,40,40,40,38,37,37,35,34,34,29]; 
departureCar = [71,67,65,68,66,67,63,64,60,58,58,56,53,55,56,53,52,48,53,50,47,49,52,43,45,50,46,42,74,42,42,43,43,41,40,37,40,42]; 
